##------CONJUNTOS
set D := D1 D2 D3 D4;
set K := 1 2;

set I := F1 F2 F3 F4 F5 F6 F7 F8 F9 F10 F11 F12;

# F1 -> Excel 2298, Comuna 22
# F2 -> Excel 2299, Comuna 22
# F3 -> Excel 2296, Comuna 22
# F4 -> Excel 597, Comuna 5
# F5 -> Excel 503, Comuna 5
# F6 -> Excel 596, Comuna 5
# F7 -> Excel 1401, Comuna 14
# F8 -> Excel 1405, Comuna 14
# F9 -> Excel 1402, Comuna 14
# F10 -> Excel 196, Comuna 1
# F11 -> Excel 199, Comuna 1
# F12 -> Excel 102, Comuna 1

# Clústeres
set C := C1 C2 C3 C4;
set IC[C1] := F1 F2 F3;
set IC[C2] := F4 F5 F6;
set IC[C3] := F7 F8 F9;
set IC[C4] := F10 F11 F12;

# Número de vehículos por tipo y depósito
set R[D1,1] := V1 V2 V3 V4;
set R[D1,2] := K1 K2;
set R[D2,1] := V5 V6 V7 V8;
set R[D2,2] := K3;
set R[D3,1] := V9 V10 V11 V12;
set R[D3,2] := K4;
set R[D4,1] := V13 V14 V15 V16;
set R[D4,2] := K5 K6;

##------PARAMETROS GLOBALES
param Vel := 25;

##------CAPACIDAD DE VEHÍCULOS (agentes que pueden transportar)
param q :=
1 5
2 10
;

##------POLICÍAS DISPONIBLES en cada depósito
param h :=
D1 40
D2 30
D3 30
D4 40
;

##------VEHÍCULOS DISPONIBLES por tipo y depósito
param v:
	1	2 :=
D1	4	2
D2	4	1
D3	4	1
D4	4	2
;

##-----DISTANCIAS ENTRE NODOS [km]
param dist:
	F1	F2	F3	F4	F5	F6	F7	F8	F9	F10	F11	F12	D1	D2	D3	D4 :=
F1	0	1.26	4.73	14.54	15.51	15.04	10.47	11.64	12.22	13.35	12.28	12.56	10.46	15.62	6.87	11.0
F2	1.26	0	4.6	14.71	15.69	15.21	10.74	11.89	12.47	13.25	12.26	12.5	10.55	15.8	6.84	11.25
F3	4.73	4.6	0	18.32	19.28	18.82	13.91	15.19	15.78	16.24	15.63	15.72	14.2	19.39	10.23	14.53
F4	14.54	14.71	18.32	0	2.02	1.44	7.27	5.9	5.65	11.99	9.0	10.27	5.98	2.07	10.7	6.4
F5	15.51	15.69	19.28	2.02	0	1.62	7.79	6.34	5.99	12.9	9.94	11.2	7.05	1.13	11.77	6.91
F6	15.04	15.21	18.82	1.44	1.62	0	7.67	6.28	5.99	12.23	9.26	10.53	6.41	1.62	11.15	6.8
F7	10.47	10.74	13.91	7.27	7.79	7.67	0	2.45	2.96	14.41	11.61	12.74	7.36	7.96	9.65	1.82
F8	11.64	11.89	15.19	5.9	6.34	6.28	2.45	0	1.53	14.13	11.21	12.41	6.97	6.51	10.06	1.63
F9	12.22	12.47	15.78	5.65	5.99	5.99	2.96	1.53	0	14.39	11.44	12.65	7.24	6.16	10.53	2.2
F10	13.35	13.25	16.24	11.99	12.9	12.23	14.41	14.13	14.39	0	3.98	2.7	8.1	12.84	7.62	14.03
F11	12.28	12.26	15.63	9.0	9.94	9.26	11.61	11.21	11.44	3.98	0	2.22	5.2	9.89	6.37	11.16
F12	12.56	12.5	15.72	10.27	11.2	10.53	12.74	12.41	12.65	2.7	2.22	0	6.38	11.15	6.66	12.33
D1	10.46	10.55	14.2	5.98	7.05	6.41	7.36	6.97	7.24	8.1	5.2	6.38	0	7.09	5.73	6.9
D2	15.62	15.8	19.39	2.07	1.13	1.62	7.96	6.51	6.16	12.84	9.89	11.15	7.09	0	11.82	7.08
D3	6.87	6.84	10.23	10.7	11.77	11.15	9.65	10.06	10.53	7.62	6.37	6.66	5.73	11.82	0	9.66
D4	11.0	11.25	14.53	6.4	6.91	6.8	1.82	1.63	2.2	14.03	11.16	12.33	6.9	7.08	9.66	0
;

#### DEMANDA DE POLICÍAS (por nodo i)
param dem :=
F1 25
F2 50
F3 125
F4 50
F5 100
F6 25
F7 50
F8 50
F9 50
F10 25
F11 50
F12 100
;

#### DEMANDA DE VEHÍCULOS (por tipo)
param mu:
    1   2 :=
 F1  0  1
 F2  0  1
 F3  0  3
 F4  0  1
 F5  0  2
 F6  0  1
 F7  0  2
 F8  0  2
 F9  0  1
 F10  0  1
 F11  0  1
 F12  0  3
;

#### TIEMPOS DE SERVICIO [horas]
param s :=
F1 0.42
F2 0.91
F3 2.11
F4 0.81
F5 1.53
F6 0.36
F7 0.86
F8 0.78
F9 0.90
F10 0.49
F11 0.78
F12 1.83
;

#### VENTANAS DE TIEMPO [horas]
param alpha :=
F1 12
F2 7
F3 6
F4 6
F5 13
F6 7
F7 12
F8 9
F9 14
F10 11
F11 14
F12 13
;

param beta :=
F1 16
F2 14
F3 16
F4 14
F5 17
F6 13
F7 22
F8 19
F9 18
F10 18
F11 21
F12 23
;

#### PRIORIDAD DE LOS NODOS
param P :=
F1 0.090
F2 0.096
F3 0.046
F4 0.231
F5 0.353
F6 0.240
F7 0.499
F8 0.484
F9 0.509
F10 0.409
F11 0.331
F12 0.213
;

